nApps = 46
nRes = 6
nActs = 92
nNetworks = 4

assignmentToResources = [1,1,2,2,2,2,2,2,2,1,1,2,1,2,2,1,2,2,2,1,2,1,1,1,2,2,1,1,2,2,3,3,3,4,4,4,4,4,3,3,3,3,3,4,3,4,4,3,3,3,3,3,3,3,4,4,3,6,4,5,3,6,3,6,4,5,6,6,6,5,5,5,5,5,6,6,6,6,6,5,6,5,5,6,6,6,6,6,6,6,5,5];

processingTimes = [120,72,104,136,120,112,104,56,64,104,104,152,104,48,80,104,80,112,136,80,128,64,160,128,104,112,48,160,128,112,300,3,3,5,3,500,500,500,3,3,7,3,500,4,3,500,4,3,500,3,3,500,4,150,3,3,500,500,500,500,11,11,3,3,4,4,300,3,3,5,3,500,500,500,3,3,7,3,500,4,3,500,4,3,500,3,3,500,4,150,3,3];

periods = [2000,10000,1000,5000,10000,10000,5000,10000,10000,10000,10000,10000,10000,10000,10000,10000,10000,10000,5000,5000,10000,10000,10000,10000,10000,10000,10000,1000,10000,10000,2000,2000,10000,1000,5000,5000,10000,10000,10000,10000,10000,10000,10000,10000,10000,5000,5000,5000,10000,10000,10000,10000,1000,1000,10000,10000,10000,10000,10000,10000,1000,1000,10000,10000,10000,10000,2000,2000,10000,1000,5000,5000,10000,10000,10000,10000,10000,10000,10000,10000,10000,5000,5000,5000,10000,10000,10000,10000,1000,1000,10000,10000];

assignmentToClusters = [1,2,3,4,5,6,7,8,9,10,11,12,13,14,15,16,9,8,17,18,2,14,2,19,8,20,20,3,9,9,21,22,23,24,25,26,27,28,29,30,31,32,33,34,35,36,37,38,39,40,41,42,43,44,45,46,2,2,2,2,3,3,14,14,20,20,21,22,23,24,25,26,27,28,29,30,31,32,33,34,35,36,37,38,39,40,41,42,43,44,45,46];

precedenceAdjList = [[],[],[61],[],[],[],[],[17],[29],[],[],[],[],[63],[],[],[],[24],[],[],[57],[],[59],[],[],[],[65],[],[8],[16],[],[],[],[],[],[],[],[],[],[],[],[],[],[],[],[],[],[],[],[],[],[],[],[],[],[],[1],[56],[20],[58],[27],[60],[21],[62],[25],[64],[30],[31],[32],[33],[34],[35],[36],[37],[38],[39],[40],[41],[42],[43],[44],[45],[46],[47],[48],[49],[50],[51],[52],[53],[54],[55]];